18 153 10
0 1 68281074.00
0 2 68281074.00
0 3 68281074.00
0 4 68281074.00
0 5 68281074.00
0 6 68281074.00
0 7 68281074.00
0 8 68281074.00
0 9 68281074.00
0 10 68281074.00
0 11 68281074.00
0 12 68281074.00
0 13 68281074.00
0 14 68281074.00
0 15 1340771.00
0 16 68281074.00
0 17 68281074.00
1 2 68281074.00
1 3 68281074.00
1 4 68281074.00
1 5 68281074.00
1 6 68281074.00
1 7 68281074.00
1 8 68281074.00
1 9 68281074.00
1 10 68281074.00
1 11 68281074.00
1 12 68281074.00
1 13 1534253.00
1 14 68281074.00
1 15 68281074.00
1 16 71057.00
1 17 2783118.00
2 3 68281074.00
2 4 68281074.00
2 5 68281074.00
2 6 68281074.00
2 7 68281074.00
2 8 68281074.00
2 9 68281074.00
2 10 68281074.00
2 11 1439171.00
2 12 68281074.00
2 13 68281074.00
2 14 1921785.00
2 15 68281074.00
2 16 68281074.00
2 17 68281074.00
3 4 68281074.00
3 5 68281074.00
3 6 68281074.00
3 7 68281074.00
3 8 68281074.00
3 9 68281074.00
3 10 3793393.00
3 11 68281074.00
3 12 573690.00
3 13 68281074.00
3 14 68281074.00
3 15 68281074.00
3 16 68281074.00
3 17 68281074.00
4 5 68281074.00
4 6 68281074.00
4 7 68281074.00
4 8 68281074.00
4 9 68281074.00
4 10 68281074.00
4 11 68281074.00
4 12 68281074.00
4 13 68281074.00
4 14 68281074.00
4 15 68281074.00
4 16 68281074.00
4 17 1268333.00
5 6 68281074.00
5 7 68281074.00
5 8 68281074.00
5 9 68281074.00
5 10 68281074.00
5 11 68281074.00
5 12 68281074.00
5 13 68281074.00
5 14 68281074.00
5 15 68281074.00
5 16 2907508.00
5 17 68281074.00
6 7 68281074.00
6 8 68281074.00
6 9 68281074.00
6 10 1981430.00
6 11 68281074.00
6 12 68281074.00
6 13 68281074.00
6 14 68281074.00
6 15 68281074.00
6 16 68281074.00
6 17 68281074.00
7 8 68281074.00
7 9 68281074.00
7 10 1205285.00
7 11 3190105.00
7 12 68281074.00
7 13 68281074.00
7 14 68281074.00
7 15 68281074.00
7 16 68281074.00
7 17 68281074.00
8 9 68281074.00
8 10 68281074.00
8 11 393839.00
8 12 68281074.00
8 13 68281074.00
8 14 68281074.00
8 15 68281074.00
8 16 68281074.00
8 17 68281074.00
9 10 68281074.00
9 11 68281074.00
9 12 68281074.00
9 13 68281074.00
9 14 68281074.00
9 15 461534.00
9 16 68281074.00
9 17 1072719.00
10 11 68281074.00
10 12 68281074.00
10 13 68281074.00
10 14 68281074.00
10 15 68281074.00
10 16 68281074.00
10 17 68281074.00
11 12 68281074.00
11 13 68281074.00
11 14 68281074.00
11 15 68281074.00
11 16 68281074.00
11 17 68281074.00
12 13 776147.00
12 14 68281074.00
12 15 68281074.00
12 16 2239343.00
12 17 68281074.00
13 14 2613116.00
13 15 68281074.00
13 16 68281074.00
13 17 68281074.00
14 15 170002.00
14 16 68281074.00
14 17 68281074.00
15 16 68281074.00
15 17 68281074.00
16 17 68281074.00
0
1
2
3
4
5
6
7
8
9
